(set-info :smt-lib-version 2.6)
(set-logic QF_NIA)
(set-info :source |
Generated by: Cristina Borralleras, Daniel Larraz, Albert Oliveras, Enric Rodriguez-Carbonell, Albert Rubio
Generated on: 2017-04-27
Generator: VeryMax
Application: Termination proving
Target solver: barcelogic
|)
(set-info :license "https://creativecommons.org/licenses/by/4.0/")
(set-info :category "industrial")
(set-info :status unsat)
(declare-fun Nl2main_i1 () Int)
(declare-fun Nl2main_range1 () Int)
(declare-fun Nl2main_up1 () Int)
(declare-fun lam0n0 () Int)
(declare-fun lam0n1 () Int)
(declare-fun lam0n2 () Int)
(declare-fun lam0n3 () Int)
(declare-fun lam0n4 () Int)
(declare-fun lam0n5 () Int)
(declare-fun lam0n7 () Int)
(declare-fun Nl2CT1 () Int)
(declare-fun lam0n6 () Int)
(declare-fun lam1n0 () Int)
(declare-fun lam1n1 () Int)
(declare-fun lam1n2 () Int)
(declare-fun lam1n3 () Int)
(declare-fun lam1n4 () Int)
(declare-fun lam1n5 () Int)
(declare-fun lam1n7 () Int)
(declare-fun lam1n6 () Int)
(declare-fun lam2n0 () Int)
(declare-fun lam2n1 () Int)
(declare-fun lam2n2 () Int)
(declare-fun lam2n3 () Int)
(declare-fun lam2n4 () Int)
(declare-fun lam2n5 () Int)
(declare-fun lam2n6 () Int)
(declare-fun lam2n8 () Int)
(declare-fun lam2n7 () Int)
(declare-fun lam3n0 () Int)
(declare-fun lam3n1 () Int)
(declare-fun lam3n2 () Int)
(declare-fun lam3n3 () Int)
(declare-fun lam3n4 () Int)
(declare-fun lam3n5 () Int)
(declare-fun lam3n6 () Int)
(declare-fun lam3n8 () Int)
(declare-fun lam3n7 () Int)
(declare-fun lam4n0 () Int)
(declare-fun lam4n1 () Int)
(declare-fun lam4n2 () Int)
(declare-fun lam4n3 () Int)
(declare-fun lam4n4 () Int)
(declare-fun lam4n5 () Int)
(declare-fun lam4n7 () Int)
(declare-fun lam4n6 () Int)
(declare-fun lam5n0 () Int)
(declare-fun lam5n1 () Int)
(declare-fun lam5n2 () Int)
(declare-fun lam5n3 () Int)
(declare-fun lam5n4 () Int)
(declare-fun lam5n5 () Int)
(declare-fun lam5n7 () Int)
(declare-fun lam5n6 () Int)
(declare-fun lam6n0 () Int)
(declare-fun lam6n1 () Int)
(declare-fun lam6n2 () Int)
(declare-fun lam6n3 () Int)
(declare-fun lam6n4 () Int)
(declare-fun lam6n5 () Int)
(declare-fun lam6n6 () Int)
(declare-fun lam6n8 () Int)
(declare-fun lam6n7 () Int)
(declare-fun lam7n0 () Int)
(declare-fun lam7n1 () Int)
(declare-fun lam7n2 () Int)
(declare-fun lam7n3 () Int)
(declare-fun lam7n4 () Int)
(declare-fun lam7n5 () Int)
(declare-fun lam7n6 () Int)
(declare-fun lam7n8 () Int)
(declare-fun lam7n7 () Int)
(declare-fun lam8n0 () Int)
(declare-fun lam8n1 () Int)
(declare-fun lam8n2 () Int)
(declare-fun lam8n3 () Int)
(declare-fun lam8n4 () Int)
(declare-fun lam8n5 () Int)
(declare-fun lam8n6 () Int)
(declare-fun lam8n7 () Int)
(declare-fun lam8n9 () Int)
(declare-fun lam8n8 () Int)
(declare-fun lam9n0 () Int)
(declare-fun lam9n1 () Int)
(declare-fun lam9n2 () Int)
(declare-fun lam9n3 () Int)
(declare-fun lam9n4 () Int)
(declare-fun lam9n5 () Int)
(declare-fun lam9n6 () Int)
(declare-fun lam9n7 () Int)
(declare-fun lam9n9 () Int)
(declare-fun lam9n8 () Int)
(declare-fun lam10n0 () Int)
(declare-fun lam10n1 () Int)
(declare-fun lam10n2 () Int)
(declare-fun lam10n3 () Int)
(declare-fun lam10n4 () Int)
(declare-fun lam10n5 () Int)
(declare-fun lam10n6 () Int)
(declare-fun lam10n8 () Int)
(declare-fun lam10n7 () Int)
(declare-fun lam11n0 () Int)
(declare-fun lam11n1 () Int)
(declare-fun lam11n2 () Int)
(declare-fun lam11n3 () Int)
(declare-fun lam11n4 () Int)
(declare-fun lam11n5 () Int)
(declare-fun lam11n6 () Int)
(declare-fun lam11n8 () Int)
(declare-fun lam11n7 () Int)
(declare-fun lam14n0 () Int)
(declare-fun lam14n1 () Int)
(declare-fun lam14n2 () Int)
(declare-fun lam14n3 () Int)
(declare-fun lam14n4 () Int)
(declare-fun lam14n5 () Int)
(declare-fun lam14n7 () Int)
(declare-fun RFN1_CT () Int)
(declare-fun RFN1_main_i () Int)
(declare-fun RFN1_main_up () Int)
(declare-fun lam14n6 () Int)
(declare-fun RFN1_main_range () Int)
(declare-fun lam17n0 () Int)
(declare-fun lam17n1 () Int)
(declare-fun lam17n2 () Int)
(declare-fun lam17n3 () Int)
(declare-fun lam17n4 () Int)
(declare-fun lam17n5 () Int)
(declare-fun lam17n6 () Int)
(declare-fun lam17n8 () Int)
(declare-fun lam17n7 () Int)
(declare-fun lam20n0 () Int)
(declare-fun lam20n1 () Int)
(declare-fun lam20n2 () Int)
(declare-fun lam20n3 () Int)
(declare-fun lam20n4 () Int)
(declare-fun lam20n5 () Int)
(declare-fun lam20n7 () Int)
(declare-fun lam20n6 () Int)
(declare-fun lam23n0 () Int)
(declare-fun lam23n1 () Int)
(declare-fun lam23n2 () Int)
(declare-fun lam23n3 () Int)
(declare-fun lam23n4 () Int)
(declare-fun lam23n5 () Int)
(declare-fun lam23n6 () Int)
(declare-fun lam23n8 () Int)
(declare-fun lam23n7 () Int)
(declare-fun lam26n0 () Int)
(declare-fun lam26n1 () Int)
(declare-fun lam26n2 () Int)
(declare-fun lam26n3 () Int)
(declare-fun lam26n4 () Int)
(declare-fun lam26n5 () Int)
(declare-fun lam26n6 () Int)
(declare-fun lam26n7 () Int)
(declare-fun lam26n9 () Int)
(declare-fun lam26n8 () Int)
(declare-fun lam29n0 () Int)
(declare-fun lam29n1 () Int)
(declare-fun lam29n2 () Int)
(declare-fun lam29n3 () Int)
(declare-fun lam29n4 () Int)
(declare-fun lam29n5 () Int)
(declare-fun lam29n6 () Int)
(declare-fun lam29n8 () Int)
(declare-fun lam29n7 () Int)
(declare-fun lam21n0 () Int)
(declare-fun lam21n1 () Int)
(declare-fun lam21n2 () Int)
(declare-fun lam21n3 () Int)
(declare-fun lam21n4 () Int)
(declare-fun lam21n5 () Int)
(declare-fun lam21n6 () Int)
(declare-fun lam21n8 () Int)
(declare-fun lam21n7 () Int)
(declare-fun lam22n0 () Int)
(declare-fun lam22n1 () Int)
(declare-fun lam22n2 () Int)
(declare-fun lam22n3 () Int)
(declare-fun lam22n4 () Int)
(declare-fun lam22n5 () Int)
(declare-fun lam22n6 () Int)
(declare-fun lam22n8 () Int)
(declare-fun lam22n7 () Int)
(declare-fun lam30n0 () Int)
(declare-fun lam30n1 () Int)
(declare-fun lam30n2 () Int)
(declare-fun lam30n3 () Int)
(declare-fun lam30n4 () Int)
(declare-fun lam30n5 () Int)
(declare-fun lam30n6 () Int)
(declare-fun lam30n8 () Int)
(declare-fun lam30n7 () Int)
(assert ( and ( <= ( - 1 ) Nl2main_i1 ) ( <= Nl2main_i1 1 ) ( <= ( - 1 ) Nl2main_range1 ) ( <= Nl2main_range1 1 ) ( <= ( - 1 ) Nl2main_up1 ) ( <= Nl2main_up1 1 ) ))
(assert ( or ( and ( >= lam0n0 0 ) ( >= lam0n1 0 ) ( >= lam0n2 0 ) ( >= lam0n3 0 ) ( >= lam0n4 0 ) ( >= lam0n5 0 ) ( >= lam0n7 0 ) ( > ( + ( * ( - 1 ) lam0n4 ) ( * 4 lam0n5 ) ( * Nl2CT1 lam0n7 ) ( - 1 ) ) 0 ) ( = ( + ( * ( - 1 ) lam0n0 ) ( * ( - 1 ) lam0n1 ) ( * ( - 1 ) lam0n2 ) ( * 1 lam0n5 ) ( * 1 lam0n6 ) ( * Nl2main_i1 lam0n7 ) ) 0 ) ( = ( + ( * ( - 1 ) lam0n0 ) ( * ( - 1 ) lam0n1 ) ( * ( - 1 ) lam0n5 ) ( * Nl2main_range1 lam0n7 ) ) 0 ) ( = ( + ( * 1 lam0n1 ) ( * ( - 1 ) lam0n2 ) ( * ( - 1 ) lam0n3 ) ( * 1 lam0n4 ) ( * Nl2main_up1 lam0n7 ) ) 0 ) ) ( and ( >= lam1n0 0 ) ( >= lam1n1 0 ) ( >= lam1n2 0 ) ( >= lam1n3 0 ) ( >= lam1n4 0 ) ( >= lam1n5 0 ) ( >= lam1n7 0 ) ( > ( + ( * ( - 1 ) lam1n4 ) ( * 4 lam1n5 ) ( * Nl2CT1 lam1n7 ) ( - 1 ( + ( + Nl2CT1 ( * Nl2main_i1 1 ) ) ( * Nl2main_up1 1 ) ) ) ) 0 ) ( = ( + ( * ( - 1 ) lam1n0 ) ( * ( - 1 ) lam1n1 ) ( * ( - 1 ) lam1n2 ) ( * 1 lam1n5 ) ( * 1 lam1n6 ) ( * Nl2main_i1 lam1n7 ) ( - ( + 0 ( * Nl2main_i1 1 ) ) ) ) 0 ) ( = ( + ( * ( - 1 ) lam1n0 ) ( * ( - 1 ) lam1n1 ) ( * ( - 1 ) lam1n5 ) ( * Nl2main_range1 lam1n7 ) ( - ( + 0 Nl2main_range1 ) ) ) 0 ) ( = ( + ( * 1 lam1n1 ) ( * ( - 1 ) lam1n2 ) ( * ( - 1 ) lam1n3 ) ( * 1 lam1n4 ) ( * Nl2main_up1 lam1n7 ) ) 0 ) ) ))
(assert ( or ( and ( >= lam2n0 0 ) ( >= lam2n1 0 ) ( >= lam2n2 0 ) ( >= lam2n3 0 ) ( >= lam2n4 0 ) ( >= lam2n5 0 ) ( >= lam2n6 0 ) ( >= lam2n8 0 ) ( > ( + ( * 1 lam2n4 ) ( * ( - 1 ) lam2n5 ) ( * ( - 2 ) lam2n6 ) ( * Nl2CT1 lam2n8 ) ( - 1 ) ) 0 ) ( = ( + ( * ( - 1 ) lam2n0 ) ( * ( - 1 ) lam2n1 ) ( * ( - 1 ) lam2n2 ) ( * 1 lam2n4 ) ( * ( - 1 ) lam2n6 ) ( * 1 lam2n7 ) ( * Nl2main_i1 lam2n8 ) ) 0 ) ( = ( + ( * ( - 1 ) lam2n0 ) ( * ( - 1 ) lam2n1 ) ( * ( - 1 ) lam2n4 ) ( * 1 lam2n6 ) ( * Nl2main_range1 lam2n8 ) ) 0 ) ( = ( + ( * 1 lam2n1 ) ( * ( - 1 ) lam2n2 ) ( * ( - 1 ) lam2n3 ) ( * 1 lam2n5 ) ( * Nl2main_up1 lam2n8 ) ) 0 ) ) ( and ( >= lam3n0 0 ) ( >= lam3n1 0 ) ( >= lam3n2 0 ) ( >= lam3n3 0 ) ( >= lam3n4 0 ) ( >= lam3n5 0 ) ( >= lam3n6 0 ) ( >= lam3n8 0 ) ( > ( + ( * 1 lam3n4 ) ( * ( - 1 ) lam3n5 ) ( * ( - 2 ) lam3n6 ) ( * Nl2CT1 lam3n8 ) ( - 1 ( + ( + Nl2CT1 ( * Nl2main_i1 1 ) ) ( * Nl2main_up1 1 ) ) ) ) 0 ) ( = ( + ( * ( - 1 ) lam3n0 ) ( * ( - 1 ) lam3n1 ) ( * ( - 1 ) lam3n2 ) ( * 1 lam3n4 ) ( * ( - 1 ) lam3n6 ) ( * 1 lam3n7 ) ( * Nl2main_i1 lam3n8 ) ( - ( + 0 ( * Nl2main_i1 1 ) ) ) ) 0 ) ( = ( + ( * ( - 1 ) lam3n0 ) ( * ( - 1 ) lam3n1 ) ( * ( - 1 ) lam3n4 ) ( * 1 lam3n6 ) ( * Nl2main_range1 lam3n8 ) ( - ( + 0 Nl2main_range1 ) ) ) 0 ) ( = ( + ( * 1 lam3n1 ) ( * ( - 1 ) lam3n2 ) ( * ( - 1 ) lam3n3 ) ( * 1 lam3n5 ) ( * Nl2main_up1 lam3n8 ) ) 0 ) ) ))
(assert ( or ( and ( >= lam4n0 0 ) ( >= lam4n1 0 ) ( >= lam4n2 0 ) ( >= lam4n3 0 ) ( >= lam4n4 0 ) ( >= lam4n5 0 ) ( >= lam4n7 0 ) ( > ( + ( * 1 lam4n3 ) ( * 1 lam4n4 ) ( * ( - 1 ) lam4n5 ) ( * Nl2CT1 lam4n7 ) ( - 1 ) ) 0 ) ( = ( + ( * ( - 1 ) lam4n0 ) ( * ( - 1 ) lam4n1 ) ( * ( - 1 ) lam4n3 ) ( * ( - 1 ) lam4n4 ) ( * 1 lam4n6 ) ( * Nl2main_i1 lam4n7 ) ) 0 ) ( = ( + ( * ( - 1 ) lam4n0 ) ( * ( - 1 ) lam4n4 ) ( * ( - 1 ) lam4n6 ) ( * Nl2main_range1 lam4n7 ) ) 0 ) ( = ( + ( * 1 lam4n0 ) ( * ( - 1 ) lam4n1 ) ( * ( - 1 ) lam4n2 ) ( * 1 lam4n5 ) ( * Nl2main_up1 lam4n7 ) ) 0 ) ) ( and ( >= lam5n0 0 ) ( >= lam5n1 0 ) ( >= lam5n2 0 ) ( >= lam5n3 0 ) ( >= lam5n4 0 ) ( >= lam5n5 0 ) ( >= lam5n7 0 ) ( > ( + ( * 1 lam5n3 ) ( * 1 lam5n4 ) ( * ( - 1 ) lam5n5 ) ( * Nl2CT1 lam5n7 ) ( - 1 ( + ( + Nl2CT1 ( * Nl2main_i1 ( - 1 ) ) ) ( * Nl2main_up1 0 ) ) ) ) 0 ) ( = ( + ( * ( - 1 ) lam5n0 ) ( * ( - 1 ) lam5n1 ) ( * ( - 1 ) lam5n3 ) ( * ( - 1 ) lam5n4 ) ( * 1 lam5n6 ) ( * Nl2main_i1 lam5n7 ) ( - ( + 0 ( * Nl2main_i1 1 ) ) ) ) 0 ) ( = ( + ( * ( - 1 ) lam5n0 ) ( * ( - 1 ) lam5n4 ) ( * ( - 1 ) lam5n6 ) ( * Nl2main_range1 lam5n7 ) ( - ( + 0 Nl2main_range1 ) ) ) 0 ) ( = ( + ( * 1 lam5n0 ) ( * ( - 1 ) lam5n1 ) ( * ( - 1 ) lam5n2 ) ( * 1 lam5n5 ) ( * Nl2main_up1 lam5n7 ) ) 0 ) ) ))
(assert ( or ( and ( >= lam6n0 0 ) ( >= lam6n1 0 ) ( >= lam6n2 0 ) ( >= lam6n3 0 ) ( >= lam6n4 0 ) ( >= lam6n5 0 ) ( >= lam6n6 0 ) ( >= lam6n8 0 ) ( > ( + ( * 1 lam6n4 ) ( * 1 lam6n5 ) ( * 4 lam6n6 ) ( * ( - 1 ) lam6n7 ) ( * Nl2CT1 lam6n8 ) ( - 1 ) ) 0 ) ( = ( + ( * 1 lam6n0 ) ( * ( - 1 ) lam6n1 ) ( * ( - 1 ) lam6n2 ) ( * ( - 1 ) lam6n3 ) ( * ( - 1 ) lam6n4 ) ( * ( - 1 ) lam6n5 ) ( * 1 lam6n6 ) ( * Nl2main_i1 lam6n8 ) ) 0 ) ( = ( + ( * ( - 1 ) lam6n0 ) ( * ( - 1 ) lam6n1 ) ( * ( - 1 ) lam6n2 ) ( * ( - 1 ) lam6n5 ) ( * ( - 1 ) lam6n6 ) ( * Nl2main_range1 lam6n8 ) ) 0 ) ( = ( + ( * 1 lam6n0 ) ( * 1 lam6n2 ) ( * ( - 1 ) lam6n3 ) ( * ( - 1 ) lam6n5 ) ( * 1 lam6n7 ) ( * Nl2main_up1 lam6n8 ) ) 0 ) ) ( and ( >= lam7n0 0 ) ( >= lam7n1 0 ) ( >= lam7n2 0 ) ( >= lam7n3 0 ) ( >= lam7n4 0 ) ( >= lam7n5 0 ) ( >= lam7n6 0 ) ( >= lam7n8 0 ) ( > ( + ( * 1 lam7n4 ) ( * 1 lam7n5 ) ( * 4 lam7n6 ) ( * ( - 1 ) lam7n7 ) ( * Nl2CT1 lam7n8 ) ( - 1 ( + Nl2CT1 ( * Nl2main_i1 1 ) ) ) ) 0 ) ( = ( + ( * 1 lam7n0 ) ( * ( - 1 ) lam7n1 ) ( * ( - 1 ) lam7n2 ) ( * ( - 1 ) lam7n3 ) ( * ( - 1 ) lam7n4 ) ( * ( - 1 ) lam7n5 ) ( * 1 lam7n6 ) ( * Nl2main_i1 lam7n8 ) ( - ( + 0 ( * Nl2main_i1 1 ) ) ) ) 0 ) ( = ( + ( * ( - 1 ) lam7n0 ) ( * ( - 1 ) lam7n1 ) ( * ( - 1 ) lam7n2 ) ( * ( - 1 ) lam7n5 ) ( * ( - 1 ) lam7n6 ) ( * Nl2main_range1 lam7n8 ) ( - ( + 0 Nl2main_range1 ) ) ) 0 ) ( = ( + ( * 1 lam7n0 ) ( * 1 lam7n2 ) ( * ( - 1 ) lam7n3 ) ( * ( - 1 ) lam7n5 ) ( * 1 lam7n7 ) ( * Nl2main_up1 lam7n8 ) ( - ( + 0 Nl2main_up1 ) ) ) 0 ) ) ))
(assert ( or ( and ( >= lam8n0 0 ) ( >= lam8n1 0 ) ( >= lam8n2 0 ) ( >= lam8n3 0 ) ( >= lam8n4 0 ) ( >= lam8n5 0 ) ( >= lam8n6 0 ) ( >= lam8n7 0 ) ( >= lam8n9 0 ) ( > ( + ( * 1 lam8n4 ) ( * 1 lam8n5 ) ( * 1 lam8n6 ) ( * ( - 2 ) lam8n7 ) ( * ( - 1 ) lam8n8 ) ( * Nl2CT1 lam8n9 ) ( - 1 ) ) 0 ) ( = ( + ( * 1 lam8n0 ) ( * ( - 1 ) lam8n1 ) ( * ( - 1 ) lam8n2 ) ( * ( - 1 ) lam8n3 ) ( * 1 lam8n4 ) ( * ( - 1 ) lam8n5 ) ( * ( - 1 ) lam8n6 ) ( * ( - 1 ) lam8n7 ) ( * Nl2main_i1 lam8n9 ) ) 0 ) ( = ( + ( * ( - 1 ) lam8n0 ) ( * ( - 1 ) lam8n1 ) ( * ( - 1 ) lam8n2 ) ( * ( - 1 ) lam8n4 ) ( * ( - 1 ) lam8n6 ) ( * 1 lam8n7 ) ( * Nl2main_range1 lam8n9 ) ) 0 ) ( = ( + ( * 1 lam8n0 ) ( * 1 lam8n2 ) ( * ( - 1 ) lam8n3 ) ( * ( - 1 ) lam8n6 ) ( * 1 lam8n8 ) ( * Nl2main_up1 lam8n9 ) ) 0 ) ) ( and ( >= lam9n0 0 ) ( >= lam9n1 0 ) ( >= lam9n2 0 ) ( >= lam9n3 0 ) ( >= lam9n4 0 ) ( >= lam9n5 0 ) ( >= lam9n6 0 ) ( >= lam9n7 0 ) ( >= lam9n9 0 ) ( > ( + ( * 1 lam9n4 ) ( * 1 lam9n5 ) ( * 1 lam9n6 ) ( * ( - 2 ) lam9n7 ) ( * ( - 1 ) lam9n8 ) ( * Nl2CT1 lam9n9 ) ( - 1 ( + Nl2CT1 ( * Nl2main_i1 1 ) ) ) ) 0 ) ( = ( + ( * 1 lam9n0 ) ( * ( - 1 ) lam9n1 ) ( * ( - 1 ) lam9n2 ) ( * ( - 1 ) lam9n3 ) ( * 1 lam9n4 ) ( * ( - 1 ) lam9n5 ) ( * ( - 1 ) lam9n6 ) ( * ( - 1 ) lam9n7 ) ( * Nl2main_i1 lam9n9 ) ( - ( + 0 ( * Nl2main_i1 1 ) ) ) ) 0 ) ( = ( + ( * ( - 1 ) lam9n0 ) ( * ( - 1 ) lam9n1 ) ( * ( - 1 ) lam9n2 ) ( * ( - 1 ) lam9n4 ) ( * ( - 1 ) lam9n6 ) ( * 1 lam9n7 ) ( * Nl2main_range1 lam9n9 ) ( - ( + 0 Nl2main_range1 ) ) ) 0 ) ( = ( + ( * 1 lam9n0 ) ( * 1 lam9n2 ) ( * ( - 1 ) lam9n3 ) ( * ( - 1 ) lam9n6 ) ( * 1 lam9n8 ) ( * Nl2main_up1 lam9n9 ) ( - ( + 0 Nl2main_up1 ) ) ) 0 ) ) ))
(assert ( or ( and ( >= lam10n0 0 ) ( >= lam10n1 0 ) ( >= lam10n2 0 ) ( >= lam10n3 0 ) ( >= lam10n4 0 ) ( >= lam10n5 0 ) ( >= lam10n6 0 ) ( >= lam10n8 0 ) ( > ( + ( * 1 lam10n4 ) ( * 1 lam10n5 ) ( * 2 lam10n6 ) ( * Nl2CT1 lam10n8 ) ( - 1 ) ) 0 ) ( = ( + ( * 1 lam10n0 ) ( * ( - 1 ) lam10n1 ) ( * ( - 1 ) lam10n2 ) ( * ( - 1 ) lam10n3 ) ( * ( - 1 ) lam10n4 ) ( * ( - 1 ) lam10n5 ) ( * 1 lam10n6 ) ( * Nl2main_i1 lam10n8 ) ) 0 ) ( = ( + ( * ( - 1 ) lam10n0 ) ( * ( - 1 ) lam10n1 ) ( * ( - 1 ) lam10n2 ) ( * ( - 1 ) lam10n5 ) ( * ( - 1 ) lam10n6 ) ( * Nl2main_range1 lam10n8 ) ) 0 ) ( = ( + ( * 1 lam10n0 ) ( * 1 lam10n2 ) ( * ( - 1 ) lam10n3 ) ( * ( - 1 ) lam10n5 ) ( * 1 lam10n7 ) ( * Nl2main_up1 lam10n8 ) ) 0 ) ) ( and ( >= lam11n0 0 ) ( >= lam11n1 0 ) ( >= lam11n2 0 ) ( >= lam11n3 0 ) ( >= lam11n4 0 ) ( >= lam11n5 0 ) ( >= lam11n6 0 ) ( >= lam11n8 0 ) ( > ( + ( * 1 lam11n4 ) ( * 1 lam11n5 ) ( * 2 lam11n6 ) ( * Nl2CT1 lam11n8 ) ( - 1 ( + Nl2CT1 ( * Nl2main_i1 ( - 1 ) ) ) ) ) 0 ) ( = ( + ( * 1 lam11n0 ) ( * ( - 1 ) lam11n1 ) ( * ( - 1 ) lam11n2 ) ( * ( - 1 ) lam11n3 ) ( * ( - 1 ) lam11n4 ) ( * ( - 1 ) lam11n5 ) ( * 1 lam11n6 ) ( * Nl2main_i1 lam11n8 ) ( - ( + 0 ( * Nl2main_i1 1 ) ) ) ) 0 ) ( = ( + ( * ( - 1 ) lam11n0 ) ( * ( - 1 ) lam11n1 ) ( * ( - 1 ) lam11n2 ) ( * ( - 1 ) lam11n5 ) ( * ( - 1 ) lam11n6 ) ( * Nl2main_range1 lam11n8 ) ( - ( + 0 Nl2main_range1 ) ) ) 0 ) ( = ( + ( * 1 lam11n0 ) ( * 1 lam11n2 ) ( * ( - 1 ) lam11n3 ) ( * ( - 1 ) lam11n5 ) ( * 1 lam11n7 ) ( * Nl2main_up1 lam11n8 ) ( - ( + 0 Nl2main_up1 ) ) ) 0 ) ) ))
(assert ( and ( or ( and ( >= lam0n0 0 ) ( >= lam0n1 0 ) ( >= lam0n2 0 ) ( >= lam0n3 0 ) ( >= lam0n4 0 ) ( >= lam0n5 0 ) ( >= lam0n7 0 ) ( > ( + ( * ( - 1 ) lam0n4 ) ( * 4 lam0n5 ) ( * Nl2CT1 lam0n7 ) ( - 1 ) ) 0 ) ( = ( + ( * ( - 1 ) lam0n0 ) ( * ( - 1 ) lam0n1 ) ( * ( - 1 ) lam0n2 ) ( * 1 lam0n5 ) ( * 1 lam0n6 ) ( * Nl2main_i1 lam0n7 ) ) 0 ) ( = ( + ( * ( - 1 ) lam0n0 ) ( * ( - 1 ) lam0n1 ) ( * ( - 1 ) lam0n5 ) ( * Nl2main_range1 lam0n7 ) ) 0 ) ( = ( + ( * 1 lam0n1 ) ( * ( - 1 ) lam0n2 ) ( * ( - 1 ) lam0n3 ) ( * 1 lam0n4 ) ( * Nl2main_up1 lam0n7 ) ) 0 ) ) ( and ( >= lam14n0 0 ) ( >= lam14n1 0 ) ( >= lam14n2 0 ) ( >= lam14n3 0 ) ( >= lam14n4 0 ) ( >= lam14n5 0 ) ( >= lam14n7 0 ) ( > ( + ( * ( - 1 ) lam14n4 ) ( * 4 lam14n5 ) ( * Nl2CT1 lam14n7 ) ( - 1 ( - ( + ( + RFN1_CT ( * RFN1_main_i 1 ) ) ( * RFN1_main_up 1 ) ) RFN1_CT ) ) ) 0 ) ( = ( + ( * ( - 1 ) lam14n0 ) ( * ( - 1 ) lam14n1 ) ( * ( - 1 ) lam14n2 ) ( * 1 lam14n5 ) ( * 1 lam14n6 ) ( * Nl2main_i1 lam14n7 ) ( - ( - ( + 0 ( * RFN1_main_i 1 ) ) RFN1_main_i ) ) ) 0 ) ( = ( + ( * ( - 1 ) lam14n0 ) ( * ( - 1 ) lam14n1 ) ( * ( - 1 ) lam14n5 ) ( * Nl2main_range1 lam14n7 ) ( - ( - ( + 0 RFN1_main_range ) RFN1_main_range ) ) ) 0 ) ( = ( + ( * 1 lam14n1 ) ( * ( - 1 ) lam14n2 ) ( * ( - 1 ) lam14n3 ) ( * 1 lam14n4 ) ( * Nl2main_up1 lam14n7 ) ( - ( - RFN1_main_up ) ) ) 0 ) ) ) ( or ( and ( >= lam2n0 0 ) ( >= lam2n1 0 ) ( >= lam2n2 0 ) ( >= lam2n3 0 ) ( >= lam2n4 0 ) ( >= lam2n5 0 ) ( >= lam2n6 0 ) ( >= lam2n8 0 ) ( > ( + ( * 1 lam2n4 ) ( * ( - 1 ) lam2n5 ) ( * ( - 2 ) lam2n6 ) ( * Nl2CT1 lam2n8 ) ( - 1 ) ) 0 ) ( = ( + ( * ( - 1 ) lam2n0 ) ( * ( - 1 ) lam2n1 ) ( * ( - 1 ) lam2n2 ) ( * 1 lam2n4 ) ( * ( - 1 ) lam2n6 ) ( * 1 lam2n7 ) ( * Nl2main_i1 lam2n8 ) ) 0 ) ( = ( + ( * ( - 1 ) lam2n0 ) ( * ( - 1 ) lam2n1 ) ( * ( - 1 ) lam2n4 ) ( * 1 lam2n6 ) ( * Nl2main_range1 lam2n8 ) ) 0 ) ( = ( + ( * 1 lam2n1 ) ( * ( - 1 ) lam2n2 ) ( * ( - 1 ) lam2n3 ) ( * 1 lam2n5 ) ( * Nl2main_up1 lam2n8 ) ) 0 ) ) ( and ( >= lam17n0 0 ) ( >= lam17n1 0 ) ( >= lam17n2 0 ) ( >= lam17n3 0 ) ( >= lam17n4 0 ) ( >= lam17n5 0 ) ( >= lam17n6 0 ) ( >= lam17n8 0 ) ( > ( + ( * 1 lam17n4 ) ( * ( - 1 ) lam17n5 ) ( * ( - 2 ) lam17n6 ) ( * Nl2CT1 lam17n8 ) ( - 1 ( - ( + ( + RFN1_CT ( * RFN1_main_i 1 ) ) ( * RFN1_main_up 1 ) ) RFN1_CT ) ) ) 0 ) ( = ( + ( * ( - 1 ) lam17n0 ) ( * ( - 1 ) lam17n1 ) ( * ( - 1 ) lam17n2 ) ( * 1 lam17n4 ) ( * ( - 1 ) lam17n6 ) ( * 1 lam17n7 ) ( * Nl2main_i1 lam17n8 ) ( - ( - ( + 0 ( * RFN1_main_i 1 ) ) RFN1_main_i ) ) ) 0 ) ( = ( + ( * ( - 1 ) lam17n0 ) ( * ( - 1 ) lam17n1 ) ( * ( - 1 ) lam17n4 ) ( * 1 lam17n6 ) ( * Nl2main_range1 lam17n8 ) ( - ( - ( + 0 RFN1_main_range ) RFN1_main_range ) ) ) 0 ) ( = ( + ( * 1 lam17n1 ) ( * ( - 1 ) lam17n2 ) ( * ( - 1 ) lam17n3 ) ( * 1 lam17n5 ) ( * Nl2main_up1 lam17n8 ) ( - ( - RFN1_main_up ) ) ) 0 ) ) ) ( or ( and ( >= lam4n0 0 ) ( >= lam4n1 0 ) ( >= lam4n2 0 ) ( >= lam4n3 0 ) ( >= lam4n4 0 ) ( >= lam4n5 0 ) ( >= lam4n7 0 ) ( > ( + ( * 1 lam4n3 ) ( * 1 lam4n4 ) ( * ( - 1 ) lam4n5 ) ( * Nl2CT1 lam4n7 ) ( - 1 ) ) 0 ) ( = ( + ( * ( - 1 ) lam4n0 ) ( * ( - 1 ) lam4n1 ) ( * ( - 1 ) lam4n3 ) ( * ( - 1 ) lam4n4 ) ( * 1 lam4n6 ) ( * Nl2main_i1 lam4n7 ) ) 0 ) ( = ( + ( * ( - 1 ) lam4n0 ) ( * ( - 1 ) lam4n4 ) ( * ( - 1 ) lam4n6 ) ( * Nl2main_range1 lam4n7 ) ) 0 ) ( = ( + ( * 1 lam4n0 ) ( * ( - 1 ) lam4n1 ) ( * ( - 1 ) lam4n2 ) ( * 1 lam4n5 ) ( * Nl2main_up1 lam4n7 ) ) 0 ) ) ( and ( >= lam20n0 0 ) ( >= lam20n1 0 ) ( >= lam20n2 0 ) ( >= lam20n3 0 ) ( >= lam20n4 0 ) ( >= lam20n5 0 ) ( >= lam20n7 0 ) ( > ( + ( * 1 lam20n3 ) ( * 1 lam20n4 ) ( * ( - 1 ) lam20n5 ) ( * Nl2CT1 lam20n7 ) ( - 1 ( - ( + ( + RFN1_CT ( * RFN1_main_i ( - 1 ) ) ) ( * RFN1_main_up 0 ) ) RFN1_CT ) ) ) 0 ) ( = ( + ( * ( - 1 ) lam20n0 ) ( * ( - 1 ) lam20n1 ) ( * ( - 1 ) lam20n3 ) ( * ( - 1 ) lam20n4 ) ( * 1 lam20n6 ) ( * Nl2main_i1 lam20n7 ) ( - ( - ( + 0 ( * RFN1_main_i 1 ) ) RFN1_main_i ) ) ) 0 ) ( = ( + ( * ( - 1 ) lam20n0 ) ( * ( - 1 ) lam20n4 ) ( * ( - 1 ) lam20n6 ) ( * Nl2main_range1 lam20n7 ) ( - ( - ( + 0 RFN1_main_range ) RFN1_main_range ) ) ) 0 ) ( = ( + ( * 1 lam20n0 ) ( * ( - 1 ) lam20n1 ) ( * ( - 1 ) lam20n2 ) ( * 1 lam20n5 ) ( * Nl2main_up1 lam20n7 ) ( - ( - RFN1_main_up ) ) ) 0 ) ) ) ( or ( and ( >= lam6n0 0 ) ( >= lam6n1 0 ) ( >= lam6n2 0 ) ( >= lam6n3 0 ) ( >= lam6n4 0 ) ( >= lam6n5 0 ) ( >= lam6n6 0 ) ( >= lam6n8 0 ) ( > ( + ( * 1 lam6n4 ) ( * 1 lam6n5 ) ( * 4 lam6n6 ) ( * ( - 1 ) lam6n7 ) ( * Nl2CT1 lam6n8 ) ( - 1 ) ) 0 ) ( = ( + ( * 1 lam6n0 ) ( * ( - 1 ) lam6n1 ) ( * ( - 1 ) lam6n2 ) ( * ( - 1 ) lam6n3 ) ( * ( - 1 ) lam6n4 ) ( * ( - 1 ) lam6n5 ) ( * 1 lam6n6 ) ( * Nl2main_i1 lam6n8 ) ) 0 ) ( = ( + ( * ( - 1 ) lam6n0 ) ( * ( - 1 ) lam6n1 ) ( * ( - 1 ) lam6n2 ) ( * ( - 1 ) lam6n5 ) ( * ( - 1 ) lam6n6 ) ( * Nl2main_range1 lam6n8 ) ) 0 ) ( = ( + ( * 1 lam6n0 ) ( * 1 lam6n2 ) ( * ( - 1 ) lam6n3 ) ( * ( - 1 ) lam6n5 ) ( * 1 lam6n7 ) ( * Nl2main_up1 lam6n8 ) ) 0 ) ) ( and ( >= lam23n0 0 ) ( >= lam23n1 0 ) ( >= lam23n2 0 ) ( >= lam23n3 0 ) ( >= lam23n4 0 ) ( >= lam23n5 0 ) ( >= lam23n6 0 ) ( >= lam23n8 0 ) ( > ( + ( * 1 lam23n4 ) ( * 1 lam23n5 ) ( * 4 lam23n6 ) ( * ( - 1 ) lam23n7 ) ( * Nl2CT1 lam23n8 ) ( - 1 ( - ( + RFN1_CT ( * RFN1_main_i 1 ) ) RFN1_CT ) ) ) 0 ) ( = ( + ( * 1 lam23n0 ) ( * ( - 1 ) lam23n1 ) ( * ( - 1 ) lam23n2 ) ( * ( - 1 ) lam23n3 ) ( * ( - 1 ) lam23n4 ) ( * ( - 1 ) lam23n5 ) ( * 1 lam23n6 ) ( * Nl2main_i1 lam23n8 ) ( - ( - ( + 0 ( * RFN1_main_i 1 ) ) RFN1_main_i ) ) ) 0 ) ( = ( + ( * ( - 1 ) lam23n0 ) ( * ( - 1 ) lam23n1 ) ( * ( - 1 ) lam23n2 ) ( * ( - 1 ) lam23n5 ) ( * ( - 1 ) lam23n6 ) ( * Nl2main_range1 lam23n8 ) ( - ( - ( + 0 RFN1_main_range ) RFN1_main_range ) ) ) 0 ) ( = ( + ( * 1 lam23n0 ) ( * 1 lam23n2 ) ( * ( - 1 ) lam23n3 ) ( * ( - 1 ) lam23n5 ) ( * 1 lam23n7 ) ( * Nl2main_up1 lam23n8 ) ( - ( - ( + 0 RFN1_main_up ) RFN1_main_up ) ) ) 0 ) ) ) ( or ( and ( >= lam8n0 0 ) ( >= lam8n1 0 ) ( >= lam8n2 0 ) ( >= lam8n3 0 ) ( >= lam8n4 0 ) ( >= lam8n5 0 ) ( >= lam8n6 0 ) ( >= lam8n7 0 ) ( >= lam8n9 0 ) ( > ( + ( * 1 lam8n4 ) ( * 1 lam8n5 ) ( * 1 lam8n6 ) ( * ( - 2 ) lam8n7 ) ( * ( - 1 ) lam8n8 ) ( * Nl2CT1 lam8n9 ) ( - 1 ) ) 0 ) ( = ( + ( * 1 lam8n0 ) ( * ( - 1 ) lam8n1 ) ( * ( - 1 ) lam8n2 ) ( * ( - 1 ) lam8n3 ) ( * 1 lam8n4 ) ( * ( - 1 ) lam8n5 ) ( * ( - 1 ) lam8n6 ) ( * ( - 1 ) lam8n7 ) ( * Nl2main_i1 lam8n9 ) ) 0 ) ( = ( + ( * ( - 1 ) lam8n0 ) ( * ( - 1 ) lam8n1 ) ( * ( - 1 ) lam8n2 ) ( * ( - 1 ) lam8n4 ) ( * ( - 1 ) lam8n6 ) ( * 1 lam8n7 ) ( * Nl2main_range1 lam8n9 ) ) 0 ) ( = ( + ( * 1 lam8n0 ) ( * 1 lam8n2 ) ( * ( - 1 ) lam8n3 ) ( * ( - 1 ) lam8n6 ) ( * 1 lam8n8 ) ( * Nl2main_up1 lam8n9 ) ) 0 ) ) ( and ( >= lam26n0 0 ) ( >= lam26n1 0 ) ( >= lam26n2 0 ) ( >= lam26n3 0 ) ( >= lam26n4 0 ) ( >= lam26n5 0 ) ( >= lam26n6 0 ) ( >= lam26n7 0 ) ( >= lam26n9 0 ) ( > ( + ( * 1 lam26n4 ) ( * 1 lam26n5 ) ( * 1 lam26n6 ) ( * ( - 2 ) lam26n7 ) ( * ( - 1 ) lam26n8 ) ( * Nl2CT1 lam26n9 ) ( - 1 ( - ( + RFN1_CT ( * RFN1_main_i 1 ) ) RFN1_CT ) ) ) 0 ) ( = ( + ( * 1 lam26n0 ) ( * ( - 1 ) lam26n1 ) ( * ( - 1 ) lam26n2 ) ( * ( - 1 ) lam26n3 ) ( * 1 lam26n4 ) ( * ( - 1 ) lam26n5 ) ( * ( - 1 ) lam26n6 ) ( * ( - 1 ) lam26n7 ) ( * Nl2main_i1 lam26n9 ) ( - ( - ( + 0 ( * RFN1_main_i 1 ) ) RFN1_main_i ) ) ) 0 ) ( = ( + ( * ( - 1 ) lam26n0 ) ( * ( - 1 ) lam26n1 ) ( * ( - 1 ) lam26n2 ) ( * ( - 1 ) lam26n4 ) ( * ( - 1 ) lam26n6 ) ( * 1 lam26n7 ) ( * Nl2main_range1 lam26n9 ) ( - ( - ( + 0 RFN1_main_range ) RFN1_main_range ) ) ) 0 ) ( = ( + ( * 1 lam26n0 ) ( * 1 lam26n2 ) ( * ( - 1 ) lam26n3 ) ( * ( - 1 ) lam26n6 ) ( * 1 lam26n8 ) ( * Nl2main_up1 lam26n9 ) ( - ( - ( + 0 RFN1_main_up ) RFN1_main_up ) ) ) 0 ) ) ) ( or ( and ( >= lam10n0 0 ) ( >= lam10n1 0 ) ( >= lam10n2 0 ) ( >= lam10n3 0 ) ( >= lam10n4 0 ) ( >= lam10n5 0 ) ( >= lam10n6 0 ) ( >= lam10n8 0 ) ( > ( + ( * 1 lam10n4 ) ( * 1 lam10n5 ) ( * 2 lam10n6 ) ( * Nl2CT1 lam10n8 ) ( - 1 ) ) 0 ) ( = ( + ( * 1 lam10n0 ) ( * ( - 1 ) lam10n1 ) ( * ( - 1 ) lam10n2 ) ( * ( - 1 ) lam10n3 ) ( * ( - 1 ) lam10n4 ) ( * ( - 1 ) lam10n5 ) ( * 1 lam10n6 ) ( * Nl2main_i1 lam10n8 ) ) 0 ) ( = ( + ( * ( - 1 ) lam10n0 ) ( * ( - 1 ) lam10n1 ) ( * ( - 1 ) lam10n2 ) ( * ( - 1 ) lam10n5 ) ( * ( - 1 ) lam10n6 ) ( * Nl2main_range1 lam10n8 ) ) 0 ) ( = ( + ( * 1 lam10n0 ) ( * 1 lam10n2 ) ( * ( - 1 ) lam10n3 ) ( * ( - 1 ) lam10n5 ) ( * 1 lam10n7 ) ( * Nl2main_up1 lam10n8 ) ) 0 ) ) ( and ( >= lam29n0 0 ) ( >= lam29n1 0 ) ( >= lam29n2 0 ) ( >= lam29n3 0 ) ( >= lam29n4 0 ) ( >= lam29n5 0 ) ( >= lam29n6 0 ) ( >= lam29n8 0 ) ( > ( + ( * 1 lam29n4 ) ( * 1 lam29n5 ) ( * 2 lam29n6 ) ( * Nl2CT1 lam29n8 ) ( - 1 ( - ( + RFN1_CT ( * RFN1_main_i ( - 1 ) ) ) RFN1_CT ) ) ) 0 ) ( = ( + ( * 1 lam29n0 ) ( * ( - 1 ) lam29n1 ) ( * ( - 1 ) lam29n2 ) ( * ( - 1 ) lam29n3 ) ( * ( - 1 ) lam29n4 ) ( * ( - 1 ) lam29n5 ) ( * 1 lam29n6 ) ( * Nl2main_i1 lam29n8 ) ( - ( - ( + 0 ( * RFN1_main_i 1 ) ) RFN1_main_i ) ) ) 0 ) ( = ( + ( * ( - 1 ) lam29n0 ) ( * ( - 1 ) lam29n1 ) ( * ( - 1 ) lam29n2 ) ( * ( - 1 ) lam29n5 ) ( * ( - 1 ) lam29n6 ) ( * Nl2main_range1 lam29n8 ) ( - ( - ( + 0 RFN1_main_range ) RFN1_main_range ) ) ) 0 ) ( = ( + ( * 1 lam29n0 ) ( * 1 lam29n2 ) ( * ( - 1 ) lam29n3 ) ( * ( - 1 ) lam29n5 ) ( * 1 lam29n7 ) ( * Nl2main_up1 lam29n8 ) ( - ( - ( + 0 RFN1_main_up ) RFN1_main_up ) ) ) 0 ) ) ) ))
(assert ( and ( and ( and ( >= lam21n0 0 ) ( >= lam21n1 0 ) ( >= lam21n2 0 ) ( >= lam21n3 0 ) ( >= lam21n4 0 ) ( >= lam21n5 0 ) ( >= lam21n6 0 ) ( >= lam21n8 0 ) ( > ( + ( * 1 lam21n4 ) ( * 1 lam21n5 ) ( * 4 lam21n6 ) ( * ( - 1 ) lam21n7 ) ( * Nl2CT1 lam21n8 ) ( - 1 ( - RFN1_CT ) ) ) 0 ) ( = ( + ( * 1 lam21n0 ) ( * ( - 1 ) lam21n1 ) ( * ( - 1 ) lam21n2 ) ( * ( - 1 ) lam21n3 ) ( * ( - 1 ) lam21n4 ) ( * ( - 1 ) lam21n5 ) ( * 1 lam21n6 ) ( * Nl2main_i1 lam21n8 ) ( - ( - RFN1_main_i ) ) ) 0 ) ( = ( + ( * ( - 1 ) lam21n0 ) ( * ( - 1 ) lam21n1 ) ( * ( - 1 ) lam21n2 ) ( * ( - 1 ) lam21n5 ) ( * ( - 1 ) lam21n6 ) ( * Nl2main_range1 lam21n8 ) ( - ( - RFN1_main_range ) ) ) 0 ) ( = ( + ( * 1 lam21n0 ) ( * 1 lam21n2 ) ( * ( - 1 ) lam21n3 ) ( * ( - 1 ) lam21n5 ) ( * 1 lam21n7 ) ( * Nl2main_up1 lam21n8 ) ( - ( - RFN1_main_up ) ) ) 0 ) ) ( and ( >= lam22n0 0 ) ( >= lam22n1 0 ) ( >= lam22n2 0 ) ( >= lam22n3 0 ) ( >= lam22n4 0 ) ( >= lam22n5 0 ) ( >= lam22n6 0 ) ( >= lam22n8 0 ) ( > ( + ( * 1 lam22n4 ) ( * 1 lam22n5 ) ( * 4 lam22n6 ) ( * ( - 1 ) lam22n7 ) ( * Nl2CT1 lam22n8 ) ( - 1 ( + ( - ( + RFN1_CT ( * RFN1_main_i 1 ) ) RFN1_CT ) 1 ) ) ) 0 ) ( = ( + ( * 1 lam22n0 ) ( * ( - 1 ) lam22n1 ) ( * ( - 1 ) lam22n2 ) ( * ( - 1 ) lam22n3 ) ( * ( - 1 ) lam22n4 ) ( * ( - 1 ) lam22n5 ) ( * 1 lam22n6 ) ( * Nl2main_i1 lam22n8 ) ( - ( - ( + 0 ( * RFN1_main_i 1 ) ) RFN1_main_i ) ) ) 0 ) ( = ( + ( * ( - 1 ) lam22n0 ) ( * ( - 1 ) lam22n1 ) ( * ( - 1 ) lam22n2 ) ( * ( - 1 ) lam22n5 ) ( * ( - 1 ) lam22n6 ) ( * Nl2main_range1 lam22n8 ) ( - ( - ( + 0 RFN1_main_range ) RFN1_main_range ) ) ) 0 ) ( = ( + ( * 1 lam22n0 ) ( * 1 lam22n2 ) ( * ( - 1 ) lam22n3 ) ( * ( - 1 ) lam22n5 ) ( * 1 lam22n7 ) ( * Nl2main_up1 lam22n8 ) ( - ( - ( + 0 RFN1_main_up ) RFN1_main_up ) ) ) 0 ) ) ) ( and ( >= lam30n0 0 ) ( >= lam30n1 0 ) ( >= lam30n2 0 ) ( >= lam30n3 0 ) ( >= lam30n4 0 ) ( >= lam30n5 0 ) ( >= lam30n6 0 ) ( >= lam30n8 0 ) ( > ( + ( * 1 lam30n4 ) ( * 1 lam30n5 ) ( * 4 lam30n6 ) ( * ( - 1 ) lam30n7 ) ( * ( + ( - Nl2CT1 ) 1 ) lam30n8 ) ( - 1 ) ) 0 ) ( = ( + ( * 1 lam30n0 ) ( * ( - 1 ) lam30n1 ) ( * ( - 1 ) lam30n2 ) ( * ( - 1 ) lam30n3 ) ( * ( - 1 ) lam30n4 ) ( * ( - 1 ) lam30n5 ) ( * 1 lam30n6 ) ( * ( - Nl2main_i1 ) lam30n8 ) ) 0 ) ( = ( + ( * ( - 1 ) lam30n0 ) ( * ( - 1 ) lam30n1 ) ( * ( - 1 ) lam30n2 ) ( * ( - 1 ) lam30n5 ) ( * ( - 1 ) lam30n6 ) ( * ( - Nl2main_range1 ) lam30n8 ) ) 0 ) ( = ( + ( * 1 lam30n0 ) ( * 1 lam30n2 ) ( * ( - 1 ) lam30n3 ) ( * ( - 1 ) lam30n5 ) ( * 1 lam30n7 ) ( * ( - Nl2main_up1 ) lam30n8 ) ) 0 ) ) ))
(check-sat)
(exit)
